8
15
0 5 5 10 5 5 15 10 
0 1 4
1 0 4
0 2 4
2 0 4
0 3 11
3 0 11
0 4 10
4 0 10
0 5 4
5 0 4
0 6 5
6 0 5
1 2 6
2 1 6
1 3 3
3 1 3
1 4 8
4 1 8
1 5 8
5 1 8
1 6 5
6 1 5
2 3 8
3 2 8
2 4 11
4 2 11
2 5 13
5 2 13
2 6 8
6 2 8
3 4 4
4 3 4
3 5 12
5 3 12
3 6 10
6 3 10
4 5 1
5 4 1
4 6 1
6 4 1
5 6 1
6 5 1
